NAME : xqf131_solution.tour
TYPE : TOUR
DIMENSION : 132
COMMENT : Tour length: 1454.7442
COMMENT : Time elapsed: 222.78 [s]
TOUR_SECTION
0
5
11
28
46
49
48
47
33
34
50
63
76
88
97
122
129
124
125
112
123
117
92
53
19
6
7
1
3
2
82
93
91
86
81
77
62
37
35
56
71
96
94
90
89
45
44
67
80
102
119
108
115
98
85
69
38
22
41
40
74
120
113
111
101
100
107
106
105
104
99
52
73
15
14
13
24
4
12
54
64
68
51
32
31
25
18
17
16
20
55
58
30
29
26
27
39
72
95
103
116
128
121
110
126
130
127
118
114
109
87
10
21
9
23
42
43
60
59
65
61
75
84
83
79
78
70
66
57
36
8
0
-1
EOF
